************************************************************************
file with basedata            : j9039_.bas
initial value random generator: 14026
************************************************************************
projects                      :  1
jobs (incl. supersource/sink ):  92
horizon                       :  513
RESOURCES
  - renewable                 :  4   R
  - nonrenewable              :  0   N
  - doubly constrained        :  0   D
************************************************************************
PROJECT INFORMATION:
pronr.  #jobs rel.date duedate tardcost  MPM-Time
    1     90      0      106       10      106
************************************************************************
PRECEDENCE RELATIONS:
jobnr.    #modes  #successors   successors
   1        1          3           2   3   4
   2        1          3          11  20  34
   3        1          3           5   7  22
   4        1          3           6  10  21
   5        1          3           9  12  17
   6        1          3          13  27  64
   7        1          3           8  18  26
   8        1          3          14  15  19
   9        1          2          25  31
  10        1          3          28  40  68
  11        1          3          16  30  60
  12        1          3          37  42  45
  13        1          2          41  54
  14        1          3          41  62  75
  15        1          2          17  20
  16        1          3          31  53  78
  17        1          3          29  39  49
  18        1          3          30  40  46
  19        1          2          27  47
  20        1          3          48  76  91
  21        1          3          23  24  56
  22        1          3          36  51  54
  23        1          2          35  85
  24        1          3          25  27  71
  25        1          3          61  67  82
  26        1          3          32  38  69
  27        1          1          66
  28        1          3          44  55  65
  29        1          2          30  54
  30        1          3          33  36  84
  31        1          2          58  90
  32        1          3          46  86  88
  33        1          3          35  56  62
  34        1          3          49  63  69
  35        1          3          44  63  73
  36        1          3          41  43  80
  37        1          3          38  48  51
  38        1          2          59  84
  39        1          2          42  77
  40        1          3          43  47  57
  41        1          1          74
  42        1          1          66
  43        1          2          45  53
  44        1          3          45  67  69
  45        1          1          81
  46        1          2          52  56
  47        1          3          48  49  63
  48        1          1          82
  49        1          3          50  55  59
  50        1          2          60  64
  51        1          3          52  58  79
  52        1          3          53  68  90
  53        1          1          87
  54        1          3          55  57  60
  55        1          2          61  83
  56        1          1          82
  57        1          1          61
  58        1          3          59  66  70
  59        1          3          75  85  88
  60        1          2          62  76
  61        1          3          70  73  84
  62        1          2          67  77
  63        1          2          64  79
  64        1          2          71  72
  65        1          3          70  71  73
  66        1          2          68  80
  67        1          1          72
  68        1          1          89
  69        1          2          72  74
  70        1          1          75
  71        1          1          76
  72        1          1          78
  73        1          2          74  77
  74        1          1          79
  75        1          1          86
  76        1          2          78  83
  77        1          1          87
  78        1          2          80  81
  79        1          2          81  87
  80        1          1          88
  81        1          1          86
  82        1          1          83
  83        1          1          90
  84        1          1          85
  85        1          1          91
  86        1          1          89
  87        1          1          91
  88        1          1          89
  89        1          1          92
  90        1          1          92
  91        1          1          92
  92        1          0        
************************************************************************
REQUESTS/DURATIONS:
jobnr. mode duration  R 1  R 2  R 3  R 4
------------------------------------------------------------------------
  1      1     0       0    0    0    0
  2      1     8       3    0    0    0
  3      1     1       0    5    0    4
  4      1     4      10    0    5    0
  5      1    10       0    0    2    3
  6      1     6       0    0    0    1
  7      1    10       0    0    4    2
  8      1     6       0    0    0    5
  9      1     7       8    0    0    1
 10      1     4       5    0    3    0
 11      1     8       5    4    0    0
 12      1     9      10    0    0    0
 13      1     9       4    0    0    0
 14      1     6       5    0    0    1
 15      1     8       0    0    8    3
 16      1     9       7    0    0    0
 17      1     5       1    0    7    9
 18      1     3       8    0    0    0
 19      1     3       6    0    0    0
 20      1     6       0    5    9    0
 21      1     5       6    1    0    0
 22      1    10       0    0    5    8
 23      1     2       0    5    0    0
 24      1     7       5    7    8    0
 25      1     9      10    7    8    3
 26      1     5       0    5    0    0
 27      1     6       8    0    4    0
 28      1     5       0    0    0    5
 29      1     5       5    0    0    3
 30      1     8       0    1    6    0
 31      1     6       0    0    6    0
 32      1     7       0    2    2    0
 33      1     5       0    0    3    0
 34      1    10       0    0    0    1
 35      1     3       0    8    3    0
 36      1     4       0    0    9    9
 37      1     5       0    0    0   10
 38      1     9       0    6    9    2
 39      1     4       8    0    0    0
 40      1     3       3    1    5    3
 41      1    10       8    3    0    1
 42      1     7       3    3    8    3
 43      1     2       7    7    0    6
 44      1     5       0    0    7    0
 45      1     2       0    5    0    0
 46      1     8       0    0    9    7
 47      1     1       0    0    6    6
 48      1     4       8   10    0    5
 49      1     1       0    0    0   10
 50      1     3       5    5   10    7
 51      1     1       0    0    7    0
 52      1     7       9    0    0    1
 53      1     7      10    4   10    0
 54      1     6       1    0    0    7
 55      1     5       0    0    2    0
 56      1     5       2    7    4    6
 57      1     1       7    9    4    0
 58      1     4       0    4    1    0
 59      1     4      10    0    0   10
 60      1     9       0    4    0    5
 61      1    10       7    7    7    7
 62      1    10       0    8    7    2
 63      1     9       0    0    0    9
 64      1     8       0    4    0    2
 65      1     6       0    8    3    9
 66      1     3       9    0    0    5
 67      1     3       0    0    5    0
 68      1     1       4    0    3    0
 69      1     6       0    9    4    0
 70      1    10       7    5    0    1
 71      1     4       7    9    0    6
 72      1     3       0    0   10    4
 73      1    10       6    0    8    0
 74      1     4       0    3    0    0
 75      1     8       6    0    5    0
 76      1     2       0    0    0    1
 77      1     5       9    5    0    4
 78      1    10       5    0    0    1
 79      1     5       0    0    5    0
 80      1     8       0    6    0   10
 81      1     9       1    0    0    0
 82      1    10       3    0    8    7
 83      1     1       0    0   10    5
 84      1     2       2    0    8    7
 85      1    10       1    0   10    5
 86      1     3       0    5    1    0
 87      1     1       0    0    9    4
 88      1     2       0    3    0    1
 89      1    10       0   10    0    0
 90      1     7       2    5    1    8
 91      1     1       0    0    3    0
 92      1     0       0    0    0    0
************************************************************************
RESOURCEAVAILABILITIES:
  R 1  R 2  R 3  R 4
   32   29   44   22
************************************************************************
